
Gurobi 10.0.1 (linux64) logging started Sun Nov 26 15:37:23 2023

Set parameter LogFile to value "ArtificialInstance/ExperimentV2/S2T4K1/AdRo/gurobi1.txt"
Gurobi Optimizer version 10.0.1 build v10.0.1rc0 (linux64)

CPU model: AMD EPYC 7H12 64-Core Processor, instruction set [SSE2|AVX|AVX2]
Thread count: 128 physical cores, 128 logical processors, using up to 32 threads

Academic license 656792 - for non-commercial use only - registered to b.___@student.vu.nl
Optimize a model with 2763 rows, 2644 columns and 10271 nonzeros
Model fingerprint: 0x4fcd7b69
Variable types: 1 continuous, 2643 integer (2643 binary)
Coefficient statistics:
  Matrix range     [1e+00, 4e+01]
  Objective range  [1e+00, 2e+01]
  Bounds range     [1e+00, 1e+00]
  RHS range        [1e+00, 1e+00]
Presolve removed 281 rows and 263 columns
Presolve time: 0.04s
Presolved: 2482 rows, 2381 columns, 9474 nonzeros
Variable types: 1 continuous, 2380 integer (2380 binary)
Found heuristic solution: objective 119.2591105

Root relaxation: objective 4.288907e+01, 1404 iterations, 0.04 seconds (0.03 work units)

    Nodes    |    Current Node    |     Objective Bounds      |     Work
 Expl Unexpl |  Obj  Depth IntInf | Incumbent    BestBd   Gap | It/Node Time

     0     0   42.88907    0  150  119.25911   42.88907  64.0%     -    0s
H    0     0                      48.1483433   44.13134  8.34%     -    0s
     0     0   44.13134    0  163   48.14834   44.13134  8.34%     -    0s
     0     0   44.58522    0  155   48.14834   44.58522  7.40%     -    0s
     0     0   44.58522    0  136   48.14834   44.58522  7.40%     -    0s
     0     0   44.58522    0  138   48.14834   44.58522  7.40%     -    0s
     0     0   44.88350    0  196   48.14834   44.88350  6.78%     -    0s
     0     0   45.38638    0  194   48.14834   45.38638  5.74%     -    0s
     0     0   46.12793    0  239   48.14834   46.12793  4.20%     -    0s
H    0     0                      48.1181009   46.12793  4.14%     -    0s

Cutting planes:
  Gomory: 6
  MIR: 1
  Zero half: 22
  RLT: 3

Explored 1 nodes (4584 simplex iterations) in 0.45 seconds (0.23 work units)
Thread count was 32 (of 128 available processors)

Solution count 3: 48.1181 48.1483 119.259 

Optimal solution found (tolerance 1.00e-04)
Best objective 4.811810091140e+01, best bound 4.811810091140e+01, gap 0.0000%
